Problem:    
Rows:       113
Columns:    45 (34 integer, 34 binary)
Non-zeros:  354
Status:     INTEGER OPTIMAL
Objective:  value = 29.451853 (MINimum)

   No.   Row name        Activity     Lower bound   Upper bound
------ ------------    ------------- ------------- -------------
     1 r.5                   29.4519             0               
     2 r.6                   29.4519      -991.551               
     3 r.7                   1029.45             0               
     4 r.8                  -970.548       -994.95               
     5 r.9                   29.4519             0               
     6 r.10                  29.4519       -966.18               
     7 r.11                  1029.45             0               
     8 r.12                 -975.598       -978.28               
     9 r.13                  1029.45             0               
    10 r.14                 -970.548      -979.844               
    11 r.15                  29.4519             0               
    12 r.16                  29.4519       -987.12               
    13 r.17                  1029.45             0               
    14 r.18                 -990.704      -996.011               
    15 r.19                  29.4519             0               
    16 r.20                  29.4519      -996.271               
    17 r.21                  29.4519             0               
    18 r.22                  3.88397      -999.789               
    19 r.23                  1029.45             0               
    20 r.24                   -998.5        -998.5               
    21 r.25                        1             1             = 
    22 r.26                        1             1             = 
    23 r.27                        1             1             = 
    24 r.28                        1             1             = 
    25 r.29                        1             1             = 
    26 r.30                     1000             2               
    27 r.31                    -1000         -1001               
    28 r.32                     2000       -966.18               
    29 r.33                        2             2               
    30 r.34                       -2         -1001               
    31 r.35                 -5.04986       -978.28               
    32 r.36                     1001             2               
    33 r.37                    -1001         -1001               
    34 r.38                     2000      -979.844               
    35 r.39                     1001             2               
    36 r.40                    -1001         -1001               
    37 r.41                     2000       -987.12               
    38 r.42                     1001             2               
    39 r.43                    -1001         -1001               
    40 r.44                  1979.84      -996.011               
    41 r.45                     1001             2               
    42 r.46                    -1001         -1001               
    43 r.47                     2000      -996.271               
    44 r.48                  26.7695      -991.551               
    45 r.49                 -973.231       -994.95               
    46 r.50                  26.7695      -991.551               
    47 r.51                 -973.231       -994.95               
    48 r.52                     1000             2               
    49 r.53                    -1000         -1001               
    50 r.54                     2000       8.44904               
    51 r.55                        2             2               
    52 r.56                       -2         -1001               
    53 r.57                  5.04986       5.04986               
    54 r.58                     1001             2               
    55 r.59                    -1001         -1001               
    56 r.60                     2000      -979.844               
    57 r.61                     1001             2               
    58 r.62                    -1001         -1001               
    59 r.63                  2005.05       -987.12               
    60 r.64                     1001             2               
    61 r.65                    -1001         -1001               
    62 r.66                  1979.84      -996.011               
    63 r.67                     1001             2               
    64 r.68                    -1001         -1001               
    65 r.69                  2005.05      -996.271               
    66 r.70                  26.7695       -966.18               
    67 r.71                  -978.28       -978.28               
    68 r.72                  26.7695       -966.18               
    69 r.73                  -978.28       -978.28               
    70 r.74                     1001             2               
    71 r.75                    -1001         -1001               
    72 r.76                     2000       8.44904               
    73 r.77                     1001             2               
    74 r.78                    -1001         -1001               
    75 r.79                     2000       5.04986               
    76 r.80                     1001             2               
    77 r.81                    -1001         -1001               
    78 r.82                     2000       33.8197               
    79 r.83                     1001             2               
    80 r.84                    -1001         -1001               
    81 r.85                  1994.95       21.7196               
    82 r.86                        2             2               
    83 r.87                       -2         -1001               
    84 r.88                 -20.1559      -996.011               
    85 r.89                     1000             2               
    86 r.90                    -1000         -1001               
    87 r.91                     2000      -996.271               
    88 r.92                 -973.231      -979.844               
    89 r.93                  26.7695       -987.12               
    90 r.94                 -973.231      -979.844               
    91 r.95                  26.7695       -987.12               
    92 r.96                     1001             2               
    93 r.97                    -1001         -1001               
    94 r.98                  2020.16       8.44904               
    95 r.99                     1001             2               
    96 r.100                   -1001         -1001               
    97 r.101                    2000       5.04986               
    98 r.102                    1001             2               
    99 r.103                   -1001         -1001               
   100 r.104                 2020.16       33.8197               
   101 r.105                    1001             2               
   102 r.106                   -1001         -1001               
   103 r.107                 1994.95       21.7196               
   104 r.108                       2             2               
   105 r.109                      -2         -1001               
   106 r.110                 20.1559       20.1559               
   107 r.111                    1000             2               
   108 r.112                   -1000         -1001               
   109 r.113                    2000       12.8802               
   110 r.114                -993.386      -996.011               
   111 r.115                 26.7695      -996.271               
   112 r.116                -993.386      -996.011               
   113 r.117                 26.7695      -996.271               

   No. Column name       Activity     Lower bound   Upper bound
------ ------------    ------------- ------------- -------------
     1 tt                    29.4519             0               
     2 s_1_1        *              0             0             1 
     3 t_1_1                       0             0               
     4 s_2_1        *              1             0             1 
     5 t_2_1                       0             0               
     6 s_1_2        *              0             0             1 
     7 t_1_2                       0             0               
     8 s_2_2        *              1             0             1 
     9 t_2_2                 5.04986             0               
    10 s_1_3        *              1             0             1 
    11 t_1_3                       0             0               
    12 s_2_3        *              0             0             1 
    13 t_2_3                       0             0               
    14 s_1_4        *              1             0             1 
    15 t_1_4                 20.1559             0               
    16 s_2_4        *              0             0             1 
    17 t_2_4                       0             0               
    18 s_1_5        *              0             0             1 
    19 t_1_5                 26.7695             0               
    20 s_2_5        *              1             0             1 
    21 t_2_5                 26.7695             0               
    22 r_1_1_2      *              1             0             1 
    23 u_1_1_2      *              0             0             1 
    24 r_2_1_2      *              0             0             1 
    25 u_2_1_2      *              0             0             1 
    26 r_1_1_3      *              1             0             1 
    27 u_1_1_3      *              0             0             1 
    28 r_2_1_3      *              1             0             1 
    29 u_2_1_3      *              0             0             1 
    30 r_1_1_4      *              1             0             1 
    31 u_1_1_4      *              0             0             1 
    32 r_2_1_4      *              1             0             1 
    33 u_2_1_4      *              0             0             1 
    34 r_1_2_3      *              1             0             1 
    35 u_1_2_3      *              0             0             1 
    36 r_2_2_3      *              1             0             1 
    37 u_2_2_3      *              0             0             1 
    38 r_1_2_4      *              1             0             1 
    39 u_1_2_4      *              0             0             1 
    40 r_2_2_4      *              1             0             1 
    41 u_2_2_4      *              0             0             1 
    42 r_1_3_4      *              0             0             1 
    43 u_1_3_4      *              0             0             1 
    44 r_2_3_4      *              1             0             1 
    45 u_2_3_4      *              0             0             1 

Integer feasibility conditions:

KKT.PE: max.abs.err = 0.00e+00 on row 0
        max.rel.err = 0.00e+00 on row 0
        High quality

KKT.PB: max.abs.err = 1.14e-13 on row 20
        max.rel.err = 1.14e-16 on row 20
        High quality

End of output
